c 1 A1
c 2 C2
c 3 C4
c 4 C6
c 5 C7
c 6 A5
c 7 C10
c 8 C11
c 9 C12
c 10 C13
c 11 C14
c 12 A3
c 13 C15
c 14 C16
c 15 C17
c 16 C18
c 17 C19
c 18 C20
c 19 C21
c 20 C22
c 21 C23
c 22 A9
c 23 C24
c 24 A8
c 25 C25
c 26 C26
p cnf 26 34
1 0
1 -2 0
1 -12 0
1 -3 0
1 -6 0
1 -4 0
1 -5 0
1 -24 0
2 12 3 6 4 5 24 -1 0
6 -22 0
6 -7 0
6 -8 0
6 -9 0
6 -10 0
6 -11 0
22 7 8 9 10 11 -6 0
12 -13 0
12 -14 0
12 -15 0
12 -16 0
12 -17 0
12 -18 0
12 -19 0
12 -20 0
12 -21 0
22 -23 0
24 -25 0
24 -26 0
26 -24 0
-24 7 -14 26 4 0
24 7 14 4 0
7 14 -26 4 0
-22 -2 5 0
-14 5 0